NAME : A-n46-k7-30
TYPE : VRP-D
DIMENSION : 30
CAPACITY : 100
NODE_COORD_SECTION 
 1 75 55
 2 7 75
 3 77 1
 4 51 25
 5 81 25
 6 59 37
 7 93 45
 8 43 21
 9 35 53
 10 77 63
 11 37 13
 12 37 51
 13 27 31
 14 95 31
 15 87 43
 16 23 65
 17 9 51
 18 73 81
 19 3 1
 20 41 61
 21 29 81
 22 51 95
 23 49 25
 24 81 53
 25 7 51
 26 21 5
 27 91 35
 28 17 81
 29 61 69
 30 27 97
DEMAND_SECTION 
1 0 
2 12 
3 26 
4 1 
5 20 
6 2 
7 13 
8 20 
9 7 
10 10 
11 15 
12 7 
13 24 
14 10 
15 12 
16 23 
17 13 
18 19 
19 9 
20 12 
21 6 
22 9 
23 22 
24 18 
25 19 
26 20 
27 24 
28 10 
29 4 
30 20 
DEPOT_SECTION 
 1  
 -1  
EOF 
